1010111011001001000001000010111011011111101110100010000111101001011111111011001100001111010100110011111011001001100010111001110010001000001111110111110011111011011011001001101101011000001100001101101101100111100101011100000100101011101101110000111000000000001001101000101101100100010110110100110100111100110101001111011101111110100000100001010000010101010010011011111101111000000110111001001001100101100110001100011100110011101010110010010010100010111001011100010010010011011000111000100010010010111010001010111101111100010010011100011010000001000111000000100100010010111001101100011001001110011000101101100101010110100110110010110001010110